units			real

neigh_modify    once yes  one  22 page 2200

atom_style	full
bond_style      harmonic
angle_style     harmonic
dihedral_style  harmonic
pair_style      lj/cut/coul/cut 10.0
pair_modify     mix arithmetic

kspace_style    none
read_data       example.input


velocity all create 300 3

timestep        1.0

fix             1 all nve
fix             2 all langevin 300 300 1000 63683
fix             3 all momentum 100 linear 1 1 1
fix             4 all shake 0.0001 10 100 b 3 5 7
special_bonds   amber
